benchmark_instances/dzn_benchmark_instances/benchmark_instance_4-2.dzn
% Input: sequence of points
seq_points = [|2,1
              |1,2
              |2,2
              |3,2
              |1,3
              |3,3
              |4,1
              |4,2
              |0,4
              |1,4
              |0,0
              |1,0
             |];

num_points = 12;
