benchmark_instances/lp_benchmark_instances/benchmark_instance_4-2.lp
% Input: sequence of points
point(2,1).
point(1,2).
point(2,2).
point(3,2).
point(1,3).
point(3,3).
point(4,1).
point(4,2).
point(0,4).
point(1,4).
point(0,0).
point(1,0).
